words_hard_train/6811.qaiger
aag 99 24 0 1 75
2
4
12
14
18
22
26
30
40
42
50
62
64
80
82
100
102
112
114
132
134
170
174
176
198
6 2 5
8 3 4
10 7 9
16 13 15
20 16 19
24 20 23
28 24 27
32 29 30
34 28 31
36 33 35
38 11 36
44 40 43
46 41 42
48 45 47
52 35 50
54 34 51
56 53 55
58 49 56
60 39 59
66 62 65
68 63 64
70 67 69
72 25 26
74 73 29
76 70 75
78 71 74
84 80 83
86 81 82
88 85 87
90 21 22
92 91 25
94 89 92
96 79 95
98 88 93
104 100 102
106 105 12
108 101 103
110 106 109
116 112 115
118 113 114
120 117 119
122 121 15
124 110 123
126 125 17
128 120 14
130 126 129
136 132 135
138 133 134
140 137 139
142 17 18
144 143 21
146 141 144
148 131 147
150 99 149
152 140 145
154 150 153
156 96 155
158 77 157
160 10 37
162 158 161
164 60 163
166 48 57
168 165 167
172 168 170
178 174 177
180 175 176
182 179 181
184 54 182
186 172 184
188 173 185
190 169 171
192 55 183
194 191 193
196 188 195
198 187 197
i0 1 x1[2]
i1 1 x2[5]
i2 2 y1[0]
i3 2 y1[1]
i4 2 y1[2]
i5 2 y1[3]
i6 2 y1[4]
i7 2 y1[5]
i8 1 x1[1]
i9 1 x2[6]
i10 2 y1[6]
i11 1 x1[3]
i12 1 x2[4]
i13 1 x1[4]
i14 1 x2[3]
i15 1 x1[7]
i16 1 x2[0]
i17 1 x1[6]
i18 1 x2[1]
i19 1 x1[5]
i20 1 x2[2]
i21 2 y1[7]
i22 1 x1[0]
i23 1 x2[7]
o0 bv[0]
c
simplified
  >=
    xor
      xor
        1 x2
        reverse
          1 x1
      1
    2 y1
