words_hard_train/6811.qaiger.qdimacs
p cnf 99 226
a 32 1 2 66 67 40 41 50 51 20 21 87 56 57 88 31 0
e 3 4 5 6 7 8 9 10 11 12 13 14 15 16 17 18 19 22 23 24 25 26 27 28 29 30 33 34 35 36 37 38 39 42 43 44 45 46 47 48 49 52 53 54 55 58 59 60 61 62 63 64 65 68 69 70 71 72 73 74 75 76 77 78 79 80 81 82 83 84 85 86 89 90 91 92 93 94 95 96 97 98 99 0
-1 2 3 0
1 -3 0
-2 -3 0
1 -2 4 0
-1 -4 0
2 -4 0
3 4 5 0
-3 -5 0
-4 -5 0
6 7 8 0
-6 -8 0
-7 -8 0
-8 9 10 0
8 -10 0
-9 -10 0
-10 11 12 0
10 -12 0
-11 -12 0
-12 13 14 0
12 -14 0
-13 -14 0
14 -15 16 0
-14 -16 0
15 -16 0
-14 15 17 0
14 -17 0
-15 -17 0
16 17 18 0
-16 -18 0
-17 -18 0
5 -18 19 0
-5 -19 0
18 -19 0
-20 21 22 0
20 -22 0
-21 -22 0
20 -21 23 0
-20 -23 0
21 -23 0
22 23 24 0
-22 -24 0
-23 -24 0
17 -25 26 0
-17 -26 0
25 -26 0
-17 25 27 0
17 -27 0
-25 -27 0
26 27 28 0
-26 -28 0
-27 -28 0
24 -28 29 0
-24 -29 0
28 -29 0
19 29 30 0
-19 -30 0
-29 -30 0
-31 32 33 0
31 -33 0
-32 -33 0
31 -32 34 0
-31 -34 0
32 -34 0
33 34 35 0
-33 -35 0
-34 -35 0
12 -13 36 0
-12 -36 0
13 -36 0
36 14 37 0
-36 -37 0
-14 -37 0
-35 37 38 0
35 -38 0
-37 -38 0
35 -37 39 0
-35 -39 0
37 -39 0
-40 41 42 0
40 -42 0
-41 -42 0
40 -41 43 0
-40 -43 0
41 -43 0
42 43 44 0
-42 -44 0
-43 -44 0
10 -11 45 0
-10 -45 0
11 -45 0
45 12 46 0
-45 -46 0
-12 -46 0
44 -46 47 0
-44 -47 0
46 -47 0
39 47 48 0
-39 -48 0
-47 -48 0
-44 46 49 0
44 -49 0
-46 -49 0
-50 -51 52 0
50 -52 0
51 -52 0
52 -6 53 0
-52 -53 0
6 -53 0
50 51 54 0
-50 -54 0
-51 -54 0
-53 54 55 0
53 -55 0
-54 -55 0
-56 57 58 0
56 -58 0
-57 -58 0
56 -57 59 0
-56 -59 0
57 -59 0
58 59 60 0
-58 -60 0
-59 -60 0
60 7 61 0
-60 -61 0
-7 -61 0
-55 61 62 0
55 -62 0
-61 -62 0
62 8 63 0
-62 -63 0
-8 -63 0
-60 -7 64 0
60 -64 0
7 -64 0
-63 64 65 0
63 -65 0
-64 -65 0
-66 67 68 0
66 -68 0
-67 -68 0
66 -67 69 0
-66 -69 0
67 -69 0
68 69 70 0
-68 -70 0
-69 -70 0
8 -9 71 0
-8 -71 0
9 -71 0
71 10 72 0
-71 -72 0
-10 -72 0
70 -72 73 0
-70 -73 0
72 -73 0
65 73 74 0
-65 -74 0
-73 -74 0
49 74 75 0
-49 -75 0
-74 -75 0
-70 72 76 0
70 -76 0
-72 -76 0
-75 76 77 0
75 -77 0
-76 -77 0
-48 77 78 0
48 -78 0
-77 -78 0
38 78 79 0
-38 -79 0
-78 -79 0
-5 18 80 0
5 -80 0
-18 -80 0
-79 80 81 0
79 -81 0
-80 -81 0
-30 81 82 0
30 -82 0
-81 -82 0
-24 28 83 0
24 -83 0
-28 -83 0
82 83 84 0
-82 -84 0
-83 -84 0
-84 -85 86 0
84 -86 0
85 -86 0
-87 88 89 0
87 -89 0
-88 -89 0
87 -88 90 0
-87 -90 0
88 -90 0
89 90 91 0
-89 -91 0
-90 -91 0
-27 -91 92 0
27 -92 0
91 -92 0
-86 -92 93 0
86 -93 0
92 -93 0
86 92 94 0
-86 -94 0
-92 -94 0
84 85 95 0
-84 -95 0
-85 -95 0
27 91 96 0
-27 -96 0
-91 -96 0
95 96 97 0
-95 -97 0
-96 -97 0
-94 97 98 0
94 -98 0
-97 -98 0
93 98 99 0
-93 -99 0
-98 -99 0
99 0
